p tw 110 220
1 2
1 12
2 3
2 13
3 4
3 14
4 5
4 15
5 6
5 16
6 7
6 17
7 8
7 18
8 9
8 19
9 10
9 20
10 11
10 21
11 1
11 22
12 13
12 23
13 14
13 24
14 15
14 25
15 16
15 26
16 17
16 27
17 18
17 28
18 19
18 29
19 20
19 30
20 21
20 31
21 22
21 32
22 12
22 33
23 24
23 34
24 25
24 35
25 26
25 36
26 27
26 37
27 28
27 38
28 29
28 39
29 30
29 40
30 31
30 41
31 32
31 42
32 33
32 43
33 23
33 44
34 35
34 45
35 36
35 46
36 37
36 47
37 38
37 48
38 39
38 49
39 40
39 50
40 41
40 51
41 42
41 52
42 43
42 53
43 44
43 54
44 34
44 55
45 46
45 56
46 47
46 57
47 48
47 58
48 49
48 59
49 50
49 60
50 51
50 61
51 52
51 62
52 53
52 63
53 54
53 64
54 55
54 65
55 45
55 66
56 57
56 67
57 58
57 68
58 59
58 69
59 60
59 70
60 61
60 71
61 62
61 72
62 63
62 73
63 64
63 74
64 65
64 75
65 66
65 76
66 56
66 77
67 68
67 78
68 69
68 79
69 70
69 80
70 71
70 81
71 72
71 82
72 73
72 83
73 74
73 84
74 75
74 85
75 76
75 86
76 77
76 87
77 67
77 88
78 79
78 89
79 80
79 90
80 81
80 91
81 82
81 92
82 83
82 93
83 84
83 94
84 85
84 95
85 86
85 96
86 87
86 97
87 88
87 98
88 78
88 99
89 90
89 100
90 91
90 101
91 92
91 102
92 93
92 103
93 94
93 104
94 95
94 105
95 96
95 106
96 97
96 107
97 98
97 108
98 99
98 109
99 89
99 110
100 101
100 1
101 102
101 2
102 103
102 3
103 104
103 4
104 105
104 5
105 106
105 6
106 107
106 7
107 108
107 8
108 109
108 9
109 110
109 10
110 100
110 11
